results_rootrelaxation/bin018_080_017.srr.sol
solution status: optimal solution found
objective value:                     21.9459912856532
_var2924_                         0.00358970011412209 	(obj:2)
_var3041_                          0.0648306878427449 	(obj:1)
_var3134_                           0.192588285684958 	(obj:1)
_var3226_                           0.150666100161387 	(obj:2)
_var3271_                          0.0114543992154346 	(obj:2)
_var3292_                           0.333981785811489 	(obj:2)
_var3305_                          0.0326227288465355 	(obj:0)
_var3315_                           0.196198348642911 	(obj:2)
_var3320_                           0.108462470800203 	(obj:0)
_var3331_                           0.109361314410344 	(obj:1)
_var3355_                          0.0459047914267309 	(obj:1)
_var3361_                           0.027350198418591 	(obj:1)
_var3363_                         0.00710849869283103 	(obj:1)
_var3370_                          0.0262371765300755 	(obj:2)
_var3377_                          0.0797586287516335 	(obj:1)
_var3378_                          0.0811122723816091 	(obj:1)
_var3379_                           0.495662297639592 	(obj:1)
_var3387_                          0.0417899888670937 	(obj:2)
_var3393_                          0.0485137007404152 	(obj:0)
_var3394_                           0.304916611744257 	(obj:1)
_var3397_                          0.0311422047979628 	(obj:2)
_var3398_                           0.223392916263129 	(obj:1)
_var3399_                          0.0526845717053807 	(obj:1)
_var3402_                           0.200731818709151 	(obj:2)
_var3429_                          0.0289161403619896 	(obj:1)
_var3432_                           0.177199353955898 	(obj:2)
_var3433_                           0.269316658838419 	(obj:0)
_var3439_                           0.239100533040301 	(obj:1)
_var3440_                          0.0920543363860414 	(obj:2)
_var3441_                           0.131886847898084 	(obj:1)
_var3442_                           0.050378963404266 	(obj:1)
_var3449_                          0.0193880441376907 	(obj:1)
_var3450_                          0.0682400146160692 	(obj:0)
_var3457_                           0.259133866540522 	(obj:2)
_var3461_                           0.328943837823672 	(obj:0)
_var3469_                          0.0771202184494461 	(obj:2)
_var3481_                          0.0270299777214487 	(obj:1)
_var3486_                            0.20091020879021 	(obj:0)
_var3495_                           0.067322743217591 	(obj:1)
_var3497_                          0.0652801303067774 	(obj:1)
_var3504_                           0.202417376005105 	(obj:2)
_var3510_                           0.242030041798643 	(obj:1)
_var3512_                          0.0535732097914932 	(obj:0)
_var3526_                             0.1405475572152 	(obj:0)
_var3528_                           0.127203001294496 	(obj:2)
_var3531_                           0.040931519742385 	(obj:1)
_var3534_                           0.193901527284218 	(obj:1)
_var3537_                          0.0617903162426806 	(obj:1)
_var3545_                           0.419214349148595 	(obj:1)
_var3549_                           0.167701323398225 	(obj:1)
_var3554_                          0.0837032979261092 	(obj:1)
_var3559_                           0.309236075690091 	(obj:1)
_var3560_                           0.305038657967253 	(obj:1)
_var3564_                          0.0279499003525597 	(obj:1)
_var3565_                           0.203328112287318 	(obj:1)
_var3568_                          0.0626604232456699 	(obj:1)
_var3569_                           0.186780192493676 	(obj:1)
_var3571_                           0.313566723017182 	(obj:0)
_var3584_                          0.0715405168979467 	(obj:3)
_var3589_                           0.122688716511636 	(obj:2)
_var3591_                           0.197662503912375 	(obj:2)
_var3596_                          0.0279499003525596 	(obj:2)
_var3597_                           0.203328112287318 	(obj:0)
_var3599_                          0.0603909750030616 	(obj:1)
_var3600_                          0.0985339007228232 	(obj:2)
_var3603_                           0.102249579147807 	(obj:1)
_var3606_                           0.183171548117322 	(obj:2)
_var3609_                           0.180274432601273 	(obj:0)
_var3611_                         0.00580163382451562 	(obj:2)
_var3612_                           0.245241448891606 	(obj:1)
_var3613_                           0.305707794650784 	(obj:2)
_var3626_                           0.211676072562876 	(obj:1)
_var3630_                          0.0553570348526113 	(obj:1)
_var3631_                           0.177978651076666 	(obj:0)
_var3633_                           0.105966386929026 	(obj:1)
_var3637_                          0.0738627763172321 	(obj:1)
_var3639_                           0.180484410225355 	(obj:1)
_var3640_                          0.0753405182931198 	(obj:1)
_var3641_                          0.0310520904339148 	(obj:2)
_var3642_                           0.505939163934688 	(obj:2)
_var3643_                          0.0722274960327456 	(obj:2)
_var3644_                          0.0565458475626782 	(obj:1)
_var3645_                          0.0279499003525591 	(obj:2)
_var3650_                           0.141422870274985 	(obj:1)
_var3652_                          0.0253296699312488 	(obj:3)
_var3661_                          0.0445367967089789 	(obj:2)
_var3662_                           0.211398836265886 	(obj:2)
_var3663_                           0.167780929240234 	(obj:1)
_var3665_                          0.0920543363860412 	(obj:1)
_var3666_                          0.0451161151401548 	(obj:2)
_var3668_                          0.0497691316957702 	(obj:2)
_var3671_                           0.137504892471071 	(obj:1)
_var3675_                            0.38853806577485 	(obj:2)
_var3676_                          0.0210681543557013 	(obj:3)
_var3680_                           0.291103028669682 	(obj:1)
_var3681_                          0.0204907916389847 	(obj:2)
_var3684_                           0.245301394294257 	(obj:0)
_var3685_                          0.0106372686607539 	(obj:2)
_var3686_                          0.0743466848054192 	(obj:2)
_var3687_                           0.207969628691015 	(obj:1)
_var3688_                           0.208451182058262 	(obj:2)
_var3689_                          0.0661824583940864 	(obj:1)
_var3690_                          0.0776915280921855 	(obj:1)
_var3691_                           0.074691248638501 	(obj:1)
_var3701_                           0.152268580910799 	(obj:1)
_var3702_                         0.00279368989831959 	(obj:1)
_var3705_                         0.00267322752858719 	(obj:2)
_var3706_                          0.0682400146160716 	(obj:2)
_var3707_                           0.139296051461406 	(obj:0)
_var3708_                           0.133299438414532 	(obj:1)
_var3712_                           0.152128740440768 	(obj:2)
_var3715_                           0.115392021620174 	(obj:2)
_var3718_                          0.0279499003525596 	(obj:2)
_var3719_                            0.10083475746417 	(obj:1)
_var3720_                          0.0208542859616617 	(obj:1)
_var3728_                          0.0350777427140984 	(obj:1)
_var3729_                            0.13659113309502 	(obj:3)
_var3730_                           0.068058925098159 	(obj:2)
_var3731_                           0.198842922200173 	(obj:2)
_var3736_                          0.0282854086768038 	(obj:0)
_var3741_                          0.0162423669549308 	(obj:1)
_var3743_                          0.0872693504224579 	(obj:1)
_var3744_                           0.031215427022714 	(obj:2)
_var3745_                          0.0489629435011985 	(obj:2)
_var3746_                         0.00346558799556956 	(obj:1)
_var3749_                          0.0179789794163312 	(obj:3)
_var3751_                           0.032911120979502 	(obj:2)
_var3752_                          0.0419496688207625 	(obj:3)
_var3754_                          0.0208704343785762 	(obj:3)
_var3758_                          0.0535299155070037 	(obj:2)
_var3759_                          0.0127859859672163 	(obj:1)
_var3760_                           0.201652464403711 	(obj:3)
_var3765_                          0.0561482177591376 	(obj:2)
_var3766_                            0.24735045279921 	(obj:2)
_var3768_                            0.10235894765842 	(obj:3)
_var3769_                          0.0265707360261803 	(obj:2)
_var3771_                           0.204012474621073 	(obj:2)
_var3772_                          0.0697108289555385 	(obj:2)
_var3774_                          0.0395521143948625 	(obj:2)
_var3775_                          0.0260440566137197 	(obj:2)
_var3777_                           0.089008242255289 	(obj:2)
_var3778_                         0.00536097830291033 	(obj:2)
_var3779_                          0.0180330714482504 	(obj:2)
_var3781_                         0.00916504951232026 	(obj:2)
_var3783_                          0.0527219299833242 	(obj:2)
_var3784_                         0.00837841157601615 	(obj:1)
